sat
(:max-memory         17.95
 :memory             17.95
 :nlsat-propagations 9
 :nlsat-stages       5
 :num-allocs         18292
 :rlimit-count       1286
 :time               0.00
 :total-time         0.01)
